p cnf 70 175
c uncontrollable inputs:
a 1 0
c state variables:
a 3 4 5 6 0
c next state variables:
a 7 8 9 10 0
c controllable inputs
d 2 1 3 4 5 6 0
c winning region (state)
d 11 3 4 5 6 0
c winning region (next state)
d 12 7 8 9 10 0
c tseitin variables
e 13 14 15 16 17 18 19 20 21 22 23 24 25 26 27 28 29 30 31 32 33 34 35 36 37 38 39 40 41 42 43 44 45 46 47 48 49 50 51 52 53 54 55 56 57 58 59 60 61 62 63 64 65 66 67 68 69 70 0
c clauses:
-13 -7 0
-13 3 0
13 7 -3 0
-14 7 0
-14 -3 0
14 -7 3 0
-15 -13 0
-15 -14 0
15 13 14 0
-16 -8 0
-16 4 0
16 8 -4 0
-17 8 0
-17 -4 0
17 -8 4 0
-18 -16 0
-18 -17 0
18 16 17 0
-19 15 0
-19 18 0
19 -15 -18 0
-20 -9 0
-20 5 0
20 9 -5 0
-21 9 0
-21 -5 0
21 -9 5 0
-22 -20 0
-22 -21 0
22 20 21 0
-23 -10 0
-23 6 0
23 10 -6 0
-24 10 0
-24 -6 0
24 -10 6 0
-25 -23 0
-25 -24 0
25 23 24 0
-26 22 0
-26 25 0
26 -22 -25 0
-27 19 0
-27 26 0
27 -19 -26 0
-28 12 0
-28 -11 0
28 -12 11 0
-29 -12 0
-29 11 0
29 12 -11 0
-30 -28 0
-30 -29 0
30 28 29 0
-31 27 0
-31 -30 0
31 -27 30 0
-32 4 0
-32 3 0
32 -4 -3 0
-33 -1 0
-33 -32 0
33 1 32 0
-34 1 0
-34 32 0
34 -1 -32 0
-35 -33 0
-35 -34 0
35 33 34 0
-36 -8 0
-36 -35 0
36 8 35 0
-37 8 0
-37 35 0
37 -8 -35 0
-38 -36 0
-38 -37 0
38 36 37 0
-39 7 0
-39 38 0
39 -7 -38 0
-40 -5 0
-40 32 0
40 5 -32 0
-41 -1 0
-41 40 0
41 1 -40 0
-42 5 0
-42 3 0
42 -5 -3 0
-43 4 0
-43 -1 0
43 -4 1 0
-44 42 0
-44 -43 0
44 -42 43 0
-45 -41 0
-45 -44 0
45 41 44 0
-46 -9 0
-46 -45 0
46 9 45 0
-47 9 0
-47 45 0
47 -9 -45 0
-48 -46 0
-48 -47 0
48 46 47 0
-49 4 0
-49 42 0
49 -4 -42 0
-50 6 0
-50 3 0
50 -6 -3 0
-51 49 0
-51 50 0
51 -49 -50 0
-52 -1 0
-52 51 0
52 1 -51 0
-53 -2 0
-53 49 0
53 2 -49 0
-54 -1 0
-54 53 0
54 1 -53 0
-55 -50 0
-55 -54 0
55 50 54 0
56 -52 0
56 -55 0
-56 52 55 0
-57 -10 0
-57 -56 0
57 10 56 0
-58 10 0
-58 56 0
58 -10 -56 0
-59 -57 0
-59 -58 0
59 57 58 0
-60 48 0
-60 59 0
60 -48 -59 0
-61 39 0
-61 60 0
61 -39 -60 0
-62 61 0
-62 29 0
62 -61 -29 0
-63 11 0
-63 51 0
63 -11 -51 0
-64 -4 0
-64 -3 0
64 4 3 0
-65 -6 0
-65 -5 0
65 6 5 0
-66 64 0
-66 65 0
66 -64 -65 0
-67 -11 0
-67 66 0
67 11 -66 0
-68 -63 0
-68 -67 0
68 63 67 0
-69 -62 0
-69 68 0
69 62 -68 0
-70 -31 0
-70 69 0
70 31 -69 0
70 0
